c Command line: hgen8 160 40
p cnf 160 247
27 141 69 95 0
127 33 106 49 0
102 14 156 145 0
41 151 66 62 0
25 98 12 48 0
99 128 79 52 0
77 63 32 158 0
50 42 74 136 0
103 129 124 92 0
96 109 126 45 0
88 40 31 160 0
93 118 94 119 0
36 85 132 133 0
155 20 58 21 0
59 147 30 110 0
86 82 17 108 0
131 87 116 64 0
3 55 43 97 0
5 26 157 101 0
28 122 115 78 0
67 56 140 144 0
57 104 46 111 0
7 65 114 24 0
150 73 121 16 0
15 105 1 71 0
70 22 29 47 0
60 149 135 61 0
84 10 38 35 0
75 134 137 139 0
125 51 80 152 0
90 112 154 72 0
89 34 146 142 0
120 18 148 8 0
-1 -3 0
-1 -5 0
-3 -5 0
-7 -8 0
-7 -10 0
-8 -10 0
-12 -14 0
-12 -15 0
-14 -15 0
-16 -17 0
-16 -18 0
-16 -20 0
-17 -18 0
-17 -20 0
-18 -20 0
-21 -22 0
-21 -24 0
-21 -25 0
-22 -24 0
-22 -25 0
-24 -25 0
-26 -27 0
-26 -28 0
-26 -29 0
-26 -30 0
-27 -28 0
-27 -29 0
-27 -30 0
-28 -29 0
-28 -30 0
-29 -30 0
-31 -32 0
-31 -33 0
-31 -34 0
-31 -35 0
-32 -33 0
-32 -34 0
-32 -35 0
-33 -34 0
-33 -35 0
-34 -35 0
-36 -38 0
-36 -40 0
-38 -40 0
-41 -42 0
-41 -43 0
-41 -45 0
-42 -43 0
-42 -45 0
-43 -45 0
-46 -47 0
-46 -48 0
-46 -49 0
-46 -50 0
-47 -48 0
-47 -49 0
-47 -50 0
-48 -49 0
-48 -50 0
-49 -50 0
-51 -52 0
-51 -55 0
-52 -55 0
-56 -57 0
-56 -58 0
-56 -59 0
-56 -60 0
-57 -58 0
-57 -59 0
-57 -60 0
-58 -59 0
-58 -60 0
-59 -60 0
-61 -62 0
-61 -63 0
-61 -64 0
-61 -65 0
-62 -63 0
-62 -64 0
-62 -65 0
-63 -64 0
-63 -65 0
-64 -65 0
-66 -67 0
-66 -69 0
-66 -70 0
-67 -69 0
-67 -70 0
-69 -70 0
-71 -72 0
-71 -73 0
-71 -74 0
-71 -75 0
-72 -73 0
-72 -74 0
-72 -75 0
-73 -74 0
-73 -75 0
-74 -75 0
-77 -78 0
-77 -79 0
-77 -80 0
-78 -79 0
-78 -80 0
-79 -80 0
-82 -84 0
-82 -85 0
-84 -85 0
-86 -87 0
-86 -88 0
-86 -89 0
-86 -90 0
-87 -88 0
-87 -89 0
-87 -90 0
-88 -89 0
-88 -90 0
-89 -90 0
-92 -93 0
-92 -94 0
-92 -95 0
-93 -94 0
-93 -95 0
-94 -95 0
-96 -97 0
-96 -98 0
-96 -99 0
-97 -98 0
-97 -99 0
-98 -99 0
-101 -102 0
-101 -103 0
-101 -104 0
-101 -105 0
-102 -103 0
-102 -104 0
-102 -105 0
-103 -104 0
-103 -105 0
-104 -105 0
-106 -108 0
-106 -109 0
-106 -110 0
-108 -109 0
-108 -110 0
-109 -110 0
-111 -112 0
-111 -114 0
-111 -115 0
-112 -114 0
-112 -115 0
-114 -115 0
-116 -118 0
-116 -119 0
-116 -120 0
-118 -119 0
-118 -120 0
-119 -120 0
-121 -122 0
-121 -124 0
-121 -125 0
-122 -124 0
-122 -125 0
-124 -125 0
-126 -127 0
-126 -128 0
-126 -129 0
-127 -128 0
-127 -129 0
-128 -129 0
-131 -132 0
-131 -133 0
-131 -134 0
-131 -135 0
-132 -133 0
-132 -134 0
-132 -135 0
-133 -134 0
-133 -135 0
-134 -135 0
-136 -137 0
-136 -139 0
-136 -140 0
-137 -139 0
-137 -140 0
-139 -140 0
-141 -142 0
-141 -144 0
-141 -145 0
-142 -144 0
-142 -145 0
-144 -145 0
-146 -147 0
-146 -148 0
-146 -149 0
-146 -150 0
-147 -148 0
-147 -149 0
-147 -150 0
-148 -149 0
-148 -150 0
-149 -150 0
-151 -152 0
-151 -154 0
-151 -155 0
-152 -154 0
-152 -155 0
-154 -155 0
-156 -157 0
-156 -158 0
-156 -160 0
-157 -158 0
-157 -160 0
-158 -160 0
